
Gurobi 11.0.3 (linux64) logging started Thu Nov 21 19:42:03 2024

Set parameter LogFile to value "/home/yihong/Coding/OR_SUC/SUC_results_bigM100000_thread4/case24_ieee_rts_theta0.1_epsilon0.025_gurobi_seed90000_num_gen100_N_WDR100_load_scaling_factor1_exact_T16quadra_cost.txt"
Set parameter TimeLimit to value 3600
Gurobi Optimizer version 11.0.3 build v11.0.3rc0 (linux64 - "Ubuntu 20.04.6 LTS")

CPU model: AMD EPYC 7532 32-Core Processor, instruction set [SSE2|AVX|AVX2]
Thread count: 64 physical cores, 128 logical processors, using up to 4 threads

Optimize a model with 34563 rows, 20041 columns and 474826 nonzeros
Model fingerprint: 0x30ea5375
Model has 1600 quadratic constraints
Variable types: 18341 continuous, 1700 integer (1700 binary)
Coefficient statistics:
  Matrix range     [2e-04, 1e+05]
  QMatrix range    [2e-03, 8e-03]
  QLMatrix range   [1e-01, 6e+01]
  Objective range  [1e+00, 1e+00]
  Bounds range     [1e+00, 1e+00]
  RHS range        [1e+00, 1e+05]
Presolve removed 28038 rows and 8755 columns
Presolve time: 0.16s
Presolved: 6525 rows, 11286 columns, 42960 nonzeros
Presolved model has 1600 quadratic constraint(s)
Variable types: 9630 continuous, 1656 integer (1656 binary)

Root relaxation: objective 2.426912e+04, 4904 iterations, 0.09 seconds (0.11 work units)

    Nodes    |    Current Node    |     Objective Bounds      |     Work
 Expl Unexpl |  Obj  Depth IntInf | Incumbent    BestBd   Gap | It/Node Time

     0     0 24269.1213    0   20          - 24269.1213      -     -    0s
     0     0 322879.820    0  337          - 322879.820      -     -    0s
     0     0 322881.722    0  337          - 322881.722      -     -    0s
     0     0 486165.823    0  268          - 486165.823      -     -    0s
     0     0 486175.639    0  246          - 486175.639      -     -    0s
     0     0 486413.738    0  196          - 486413.738      -     -    0s
     0     0 486419.945    0  195          - 486419.945      -     -    0s
     0     0 486488.320    0  192          - 486488.320      -     -    0s
     0     0 486489.028    0  192          - 486489.028      -     -    1s
     0     2 486489.211    0  192          - 486489.211      -     -    1s
H  369   300                    486941.10180 486504.748  0.09%   6.9    2s
*  369   300              98    486941.10180 486504.748  0.09%   6.9    2s

Cutting planes:
  Gomory: 23
  Implied bound: 365
  MIR: 38
  Flow cover: 44

Explored 429 nodes (15766 simplex iterations) in 2.29 seconds (2.64 work units)
Thread count was 4 (of 128 available processors)

Solution count 2: 486941 486941 

Optimal solution found (tolerance 1.00e-03)
Warning: max constraint violation (6.8565e-07) exceeds tolerance
Best objective 4.869411018016e+05, best bound 4.865047476422e+05, gap 0.0896%
